c File: flat50_3_0.col
c
c SOURCE: Joseph Culberson (joe@cs.ualberta.ca)
c DESCRIPTION: Quasi-random coloring problem
c              generated with flatness = 0
c                             probability = 0.139
c                             known coloring = 3
c                             random seed = 1850
c              Creation Date:  Tue Jun  9 12:19:28 1998
c Maximum degree = 7 Minimum degree = 1
c p edge 50 115
c cnf created by edge2cnf
p cnf 150 545
-1 -2 0
-1 -3 0
-2 -3 0
1 2 3 0
-4 -5 0
-4 -6 0
-5 -6 0
4 5 6 0
-7 -8 0
-7 -9 0
-8 -9 0
7 8 9 0
-10 -11 0
-10 -12 0
-11 -12 0
10 11 12 0
-13 -14 0
-13 -15 0
-14 -15 0
13 14 15 0
-16 -17 0
-16 -18 0
-17 -18 0
16 17 18 0
-19 -20 0
-19 -21 0
-20 -21 0
19 20 21 0
-22 -23 0
-22 -24 0
-23 -24 0
22 23 24 0
-25 -26 0
-25 -27 0
-26 -27 0
25 26 27 0
-28 -29 0
-28 -30 0
-29 -30 0
28 29 30 0
-31 -32 0
-31 -33 0
-32 -33 0
31 32 33 0
-34 -35 0
-34 -36 0
-35 -36 0
34 35 36 0
-37 -38 0
-37 -39 0
-38 -39 0
37 38 39 0
-40 -41 0
-40 -42 0
-41 -42 0
40 41 42 0
-43 -44 0
-43 -45 0
-44 -45 0
43 44 45 0
-46 -47 0
-46 -48 0
-47 -48 0
46 47 48 0
-49 -50 0
-49 -51 0
-50 -51 0
49 50 51 0
-52 -53 0
-52 -54 0
-53 -54 0
52 53 54 0
-55 -56 0
-55 -57 0
-56 -57 0
55 56 57 0
-58 -59 0
-58 -60 0
-59 -60 0
58 59 60 0
-61 -62 0
-61 -63 0
-62 -63 0
61 62 63 0
-64 -65 0
-64 -66 0
-65 -66 0
64 65 66 0
-67 -68 0
-67 -69 0
-68 -69 0
67 68 69 0
-70 -71 0
-70 -72 0
-71 -72 0
70 71 72 0
-73 -74 0
-73 -75 0
-74 -75 0
73 74 75 0
-76 -77 0
-76 -78 0
-77 -78 0
76 77 78 0
-79 -80 0
-79 -81 0
-80 -81 0
79 80 81 0
-82 -83 0
-82 -84 0
-83 -84 0
82 83 84 0
-85 -86 0
-85 -87 0
-86 -87 0
85 86 87 0
-88 -89 0
-88 -90 0
-89 -90 0
88 89 90 0
-91 -92 0
-91 -93 0
-92 -93 0
91 92 93 0
-94 -95 0
-94 -96 0
-95 -96 0
94 95 96 0
-97 -98 0
-97 -99 0
-98 -99 0
97 98 99 0
-100 -101 0
-100 -102 0
-101 -102 0
100 101 102 0
-103 -104 0
-103 -105 0
-104 -105 0
103 104 105 0
-106 -107 0
-106 -108 0
-107 -108 0
106 107 108 0
-109 -110 0
-109 -111 0
-110 -111 0
109 110 111 0
-112 -113 0
-112 -114 0
-113 -114 0
112 113 114 0
-115 -116 0
-115 -117 0
-116 -117 0
115 116 117 0
-118 -119 0
-118 -120 0
-119 -120 0
118 119 120 0
-121 -122 0
-121 -123 0
-122 -123 0
121 122 123 0
-124 -125 0
-124 -126 0
-125 -126 0
124 125 126 0
-127 -128 0
-127 -129 0
-128 -129 0
127 128 129 0
-130 -131 0
-130 -132 0
-131 -132 0
130 131 132 0
-133 -134 0
-133 -135 0
-134 -135 0
133 134 135 0
-136 -137 0
-136 -138 0
-137 -138 0
136 137 138 0
-139 -140 0
-139 -141 0
-140 -141 0
139 140 141 0
-142 -143 0
-142 -144 0
-143 -144 0
142 143 144 0
-145 -146 0
-145 -147 0
-146 -147 0
145 146 147 0
-148 -149 0
-148 -150 0
-149 -150 0
148 149 150 0
-70 -1 0
-71 -2 0
-72 -3 0
-82 -1 0
-83 -2 0
-84 -3 0
-88 -1 0
-89 -2 0
-90 -3 0
-91 -1 0
-92 -2 0
-93 -3 0
-106 -1 0
-107 -2 0
-108 -3 0
-133 -1 0
-134 -2 0
-135 -3 0
-142 -1 0
-143 -2 0
-144 -3 0
-55 -4 0
-56 -5 0
-57 -6 0
-58 -4 0
-59 -5 0
-60 -6 0
-61 -4 0
-62 -5 0
-63 -6 0
-73 -4 0
-74 -5 0
-75 -6 0
-103 -4 0
-104 -5 0
-105 -6 0
-112 -4 0
-113 -5 0
-114 -6 0
-115 -4 0
-116 -5 0
-117 -6 0
-79 -7 0
-80 -8 0
-81 -9 0
-130 -7 0
-131 -8 0
-132 -9 0
-136 -7 0
-137 -8 0
-138 -9 0
-76 -10 0
-77 -11 0
-78 -12 0
-124 -10 0
-125 -11 0
-126 -12 0
-133 -10 0
-134 -11 0
-135 -12 0
-145 -10 0
-146 -11 0
-147 -12 0
-58 -13 0
-59 -14 0
-60 -15 0
-64 -13 0
-65 -14 0
-66 -15 0
-73 -13 0
-74 -14 0
-75 -15 0
-100 -13 0
-101 -14 0
-102 -15 0
-112 -13 0
-113 -14 0
-114 -15 0
-127 -13 0
-128 -14 0
-129 -15 0
-148 -13 0
-149 -14 0
-150 -15 0
-55 -16 0
-56 -17 0
-57 -18 0
-82 -16 0
-83 -17 0
-84 -18 0
-112 -16 0
-113 -17 0
-114 -18 0
-121 -16 0
-122 -17 0
-123 -18 0
-136 -16 0
-137 -17 0
-138 -18 0
-64 -19 0
-65 -20 0
-66 -21 0
-70 -19 0
-71 -20 0
-72 -21 0
-91 -19 0
-92 -20 0
-93 -21 0
-100 -19 0
-101 -20 0
-102 -21 0
-118 -19 0
-119 -20 0
-120 -21 0
-133 -19 0
-134 -20 0
-135 -21 0
-55 -22 0
-56 -23 0
-57 -24 0
-58 -22 0
-59 -23 0
-60 -24 0
-70 -22 0
-71 -23 0
-72 -24 0
-91 -22 0
-92 -23 0
-93 -24 0
-142 -22 0
-143 -23 0
-144 -24 0
-145 -22 0
-146 -23 0
-147 -24 0
-52 -25 0
-53 -26 0
-54 -27 0
-64 -25 0
-65 -26 0
-66 -27 0
-82 -25 0
-83 -26 0
-84 -27 0
-100 -25 0
-101 -26 0
-102 -27 0
-121 -25 0
-122 -26 0
-123 -27 0
-133 -25 0
-134 -26 0
-135 -27 0
-61 -28 0
-62 -29 0
-63 -30 0
-130 -28 0
-131 -29 0
-132 -30 0
-145 -28 0
-146 -29 0
-147 -30 0
-79 -31 0
-80 -32 0
-81 -33 0
-88 -34 0
-89 -35 0
-90 -36 0
-103 -34 0
-104 -35 0
-105 -36 0
-130 -34 0
-131 -35 0
-132 -36 0
-139 -34 0
-140 -35 0
-141 -36 0
-106 -37 0
-107 -38 0
-108 -39 0
-109 -37 0
-110 -38 0
-111 -39 0
-115 -37 0
-116 -38 0
-117 -39 0
-121 -37 0
-122 -38 0
-123 -39 0
-109 -40 0
-110 -41 0
-111 -42 0
-73 -43 0
-74 -44 0
-75 -45 0
-88 -43 0
-89 -44 0
-90 -45 0
-94 -43 0
-95 -44 0
-96 -45 0
-100 -43 0
-101 -44 0
-102 -45 0
-115 -43 0
-116 -44 0
-117 -45 0
-58 -46 0
-59 -47 0
-60 -48 0
-67 -46 0
-68 -47 0
-69 -48 0
-70 -46 0
-71 -47 0
-72 -48 0
-139 -46 0
-140 -47 0
-141 -48 0
-61 -49 0
-62 -50 0
-63 -51 0
-73 -49 0
-74 -50 0
-75 -51 0
-103 -49 0
-104 -50 0
-105 -51 0
-145 -49 0
-146 -50 0
-147 -51 0
-112 -52 0
-113 -53 0
-114 -54 0
-139 -52 0
-140 -53 0
-141 -54 0
-115 -55 0
-116 -56 0
-117 -57 0
-124 -55 0
-125 -56 0
-126 -57 0
-139 -55 0
-140 -56 0
-141 -57 0
-103 -58 0
-104 -59 0
-105 -60 0
-115 -58 0
-116 -59 0
-117 -60 0
-139 -58 0
-140 -59 0
-141 -60 0
-124 -61 0
-125 -62 0
-126 -63 0
-136 -61 0
-137 -62 0
-138 -63 0
-142 -61 0
-143 -62 0
-144 -63 0
-109 -64 0
-110 -65 0
-111 -66 0
-127 -64 0
-128 -65 0
-129 -66 0
-109 -67 0
-110 -68 0
-111 -69 0
-142 -67 0
-143 -68 0
-144 -69 0
-124 -70 0
-125 -71 0
-126 -72 0
-112 -73 0
-113 -74 0
-114 -75 0
-115 -76 0
-116 -77 0
-117 -78 0
-109 -79 0
-110 -80 0
-111 -81 0
-112 -79 0
-113 -80 0
-114 -81 0
-118 -79 0
-119 -80 0
-120 -81 0
-142 -79 0
-143 -80 0
-144 -81 0
-136 -82 0
-137 -83 0
-138 -84 0
-115 -85 0
-116 -86 0
-117 -87 0
-124 -85 0
-125 -86 0
-126 -87 0
-136 -85 0
-137 -86 0
-138 -87 0
-136 -88 0
-137 -89 0
-138 -90 0
-142 -88 0
-143 -89 0
-144 -90 0
-133 -91 0
-134 -92 0
-135 -93 0
-145 -91 0
-146 -92 0
-147 -93 0
-106 -94 0
-107 -95 0
-108 -96 0
-112 -94 0
-113 -95 0
-114 -96 0
-118 -94 0
-119 -95 0
-120 -96 0
-145 -94 0
-146 -95 0
-147 -96 0
-118 -97 0
-119 -98 0
-120 -99 0
-121 -97 0
-122 -98 0
-123 -99 0
-106 -100 0
-107 -101 0
-108 -102 0
-121 -100 0
-122 -101 0
-123 -102 0
